NAME : MM7_depots
COMMENT : Instance 7 in MD algorithm. Coordinates of depots and vhcl speeds given.
TYPE : TSP
DIMENSION : 3
EDGE_WEIGHT_TYPE : ATT
NODE_COORD_SECTION
26 37.0000 64.0000 1
27 37.0000 64.0000 1
28 37.0000 64.0000 1
EOF
